; Gnark SCS constraint system export
; Field: 21888242871839275222246405745257275088548364400416034343698204186575808495617
; Variables: 0 public, 3 secret, 126 internal
; Constraints: 130

(set-logic QF_FF)
(define-sort F () (_ FiniteField 21888242871839275222246405745257275088548364400416034343698204186575808495617))

(declare-const w0 F)
(declare-const w1 F)
(declare-const w2 F)
(declare-const w3 F)
(declare-const w4 F)
(declare-const w5 F)
(declare-const w6 F)
(declare-const w7 F)
(declare-const w8 F)
(declare-const w9 F)
(declare-const w10 F)
(declare-const w11 F)
(declare-const w12 F)
(declare-const w13 F)
(declare-const w14 F)
(declare-const w15 F)
(declare-const w16 F)
(declare-const w17 F)
(declare-const w18 F)
(declare-const w19 F)
(declare-const w20 F)
(declare-const w21 F)
(declare-const w22 F)
(declare-const w23 F)
(declare-const w24 F)
(declare-const w25 F)
(declare-const w26 F)
(declare-const w27 F)
(declare-const w28 F)
(declare-const w29 F)
(declare-const w30 F)
(declare-const w31 F)
(declare-const w32 F)
(declare-const w33 F)
(declare-const w34 F)
(declare-const w35 F)
(declare-const w36 F)
(declare-const w37 F)
(declare-const w38 F)
(declare-const w39 F)
(declare-const w40 F)
(declare-const w41 F)
(declare-const w42 F)
(declare-const w43 F)
(declare-const w44 F)
(declare-const w45 F)
(declare-const w46 F)
(declare-const w47 F)
(declare-const w48 F)
(declare-const w49 F)
(declare-const w50 F)
(declare-const w51 F)
(declare-const w52 F)
(declare-const w53 F)
(declare-const w54 F)
(declare-const w55 F)
(declare-const w56 F)
(declare-const w57 F)
(declare-const w58 F)
(declare-const w59 F)
(declare-const w60 F)
(declare-const w61 F)
(declare-const w62 F)
(declare-const w63 F)
(declare-const w64 F)
(declare-const w65 F)
(declare-const w66 F)
(declare-const w67 F)
(declare-const w68 F)
(declare-const w69 F)
(declare-const w70 F)
(declare-const w71 F)
(declare-const w72 F)
(declare-const w73 F)
(declare-const w74 F)
(declare-const w75 F)
(declare-const w76 F)
(declare-const w77 F)
(declare-const w78 F)
(declare-const w79 F)
(declare-const w80 F)
(declare-const w81 F)
(declare-const w82 F)
(declare-const w83 F)
(declare-const w84 F)
(declare-const w85 F)
(declare-const w86 F)
(declare-const w87 F)
(declare-const w88 F)
(declare-const w89 F)
(declare-const w90 F)
(declare-const w91 F)
(declare-const w92 F)
(declare-const w93 F)
(declare-const w94 F)
(declare-const w95 F)
(declare-const w96 F)
(declare-const w97 F)
(declare-const w98 F)
(declare-const w99 F)
(declare-const w100 F)
(declare-const w101 F)
(declare-const w102 F)
(declare-const w103 F)
(declare-const w104 F)
(declare-const w105 F)
(declare-const w106 F)
(declare-const w107 F)
(declare-const w108 F)
(declare-const w109 F)
(declare-const w110 F)
(declare-const w111 F)
(declare-const w112 F)
(declare-const w113 F)
(declare-const w114 F)
(declare-const w115 F)
(declare-const w116 F)
(declare-const w117 F)
(declare-const w118 F)
(declare-const w119 F)
(declare-const w120 F)
(declare-const w121 F)
(declare-const w122 F)
(declare-const w123 F)
(declare-const w124 F)
(declare-const w125 F)
(declare-const w126 F)
(declare-const w127 F)
(declare-const w128 F)

(define-const zero F (as ff0 F))

; Constraint 0: 1*v0 + 16*v1 + -1*A == 0
(assert (= (ff.add (ff.add (ff.mul (as ff1 F) w3) (ff.mul (as ff16 F) w4)) (ff.mul (as ff21888242871839275222246405745257275088548364400416034343698204186575808495616 F) w0)) zero))

; Constraint 1: 1*v2 + 16*v3 + -1*v6 == 0
(assert (= (ff.add (ff.add (ff.mul (as ff1 F) w5) (ff.mul (as ff16 F) w6)) (ff.mul (as ff21888242871839275222246405745257275088548364400416034343698204186575808495616 F) w9)) zero))

; Constraint 2: 1*v6 + 256*v4 + -1*v7 == 0
(assert (= (ff.add (ff.add (ff.mul (as ff1 F) w9) (ff.mul (as ff256 F) w7)) (ff.mul (as ff21888242871839275222246405745257275088548364400416034343698204186575808495616 F) w10)) zero))

; Constraint 3: 1*v7 + 4096*v5 + -1*B == 0
(assert (= (ff.add (ff.add (ff.mul (as ff1 F) w10) (ff.mul (as ff4096 F) w8)) (ff.mul (as ff21888242871839275222246405745257275088548364400416034343698204186575808495616 F) w1)) zero))

; Constraint 4: 1*v8 + 16*v9 + -1*v16 == 0
(assert (= (ff.add (ff.add (ff.mul (as ff1 F) w11) (ff.mul (as ff16 F) w12)) (ff.mul (as ff21888242871839275222246405745257275088548364400416034343698204186575808495616 F) w19)) zero))

; Constraint 5: 1*v16 + 256*v10 + -1*v17 == 0
(assert (= (ff.add (ff.add (ff.mul (as ff1 F) w19) (ff.mul (as ff256 F) w13)) (ff.mul (as ff21888242871839275222246405745257275088548364400416034343698204186575808495616 F) w20)) zero))

; Constraint 6: 1*v17 + 4096*v11 + -1*v18 == 0
(assert (= (ff.add (ff.add (ff.mul (as ff1 F) w20) (ff.mul (as ff4096 F) w14)) (ff.mul (as ff21888242871839275222246405745257275088548364400416034343698204186575808495616 F) w21)) zero))

; Constraint 7: 1*v18 + 65536*v12 + -1*v19 == 0
(assert (= (ff.add (ff.add (ff.mul (as ff1 F) w21) (ff.mul (as ff65536 F) w15)) (ff.mul (as ff21888242871839275222246405745257275088548364400416034343698204186575808495616 F) w22)) zero))

; Constraint 8: 1*v19 + 1048576*v13 + -1*v20 == 0
(assert (= (ff.add (ff.add (ff.mul (as ff1 F) w22) (ff.mul (as ff1048576 F) w16)) (ff.mul (as ff21888242871839275222246405745257275088548364400416034343698204186575808495616 F) w23)) zero))

; Constraint 9: 1*v20 + 16777216*v14 + -1*v21 == 0
(assert (= (ff.add (ff.add (ff.mul (as ff1 F) w23) (ff.mul (as ff16777216 F) w17)) (ff.mul (as ff21888242871839275222246405745257275088548364400416034343698204186575808495616 F) w24)) zero))

; Constraint 10: 1*v21 + 268435456*v15 + -1*C == 0
(assert (= (ff.add (ff.add (ff.mul (as ff1 F) w24) (ff.mul (as ff268435456 F) w18)) (ff.mul (as ff21888242871839275222246405745257275088548364400416034343698204186575808495616 F) w2)) zero))

; Constraint 11: -1*v0 == 0
(assert (= (ff.mul (as ff21888242871839275222246405745257275088548364400416034343698204186575808495616 F) w3) zero))

; Constraint 12: -1*v1 == 0
(assert (= (ff.mul (as ff21888242871839275222246405745257275088548364400416034343698204186575808495616 F) w4) zero))

; Constraint 13: -1*v2 == 0
(assert (= (ff.mul (as ff21888242871839275222246405745257275088548364400416034343698204186575808495616 F) w5) zero))

; Constraint 14: -1*v3 == 0
(assert (= (ff.mul (as ff21888242871839275222246405745257275088548364400416034343698204186575808495616 F) w6) zero))

; Constraint 15: -1*v4 == 0
(assert (= (ff.mul (as ff21888242871839275222246405745257275088548364400416034343698204186575808495616 F) w7) zero))

; Constraint 16: -1*v5 == 0
(assert (= (ff.mul (as ff21888242871839275222246405745257275088548364400416034343698204186575808495616 F) w8) zero))

; Constraint 17: -1*v8 == 0
(assert (= (ff.mul (as ff21888242871839275222246405745257275088548364400416034343698204186575808495616 F) w11) zero))

; Constraint 18: -1*v9 == 0
(assert (= (ff.mul (as ff21888242871839275222246405745257275088548364400416034343698204186575808495616 F) w12) zero))

; Constraint 19: -1*v10 == 0
(assert (= (ff.mul (as ff21888242871839275222246405745257275088548364400416034343698204186575808495616 F) w13) zero))

; Constraint 20: -1*v11 == 0
(assert (= (ff.mul (as ff21888242871839275222246405745257275088548364400416034343698204186575808495616 F) w14) zero))

; Constraint 21: -1*v12 == 0
(assert (= (ff.mul (as ff21888242871839275222246405745257275088548364400416034343698204186575808495616 F) w15) zero))

; Constraint 22: -1*v13 == 0
(assert (= (ff.mul (as ff21888242871839275222246405745257275088548364400416034343698204186575808495616 F) w16) zero))

; Constraint 23: -1*v14 == 0
(assert (= (ff.mul (as ff21888242871839275222246405745257275088548364400416034343698204186575808495616 F) w17) zero))

; Constraint 24: -1*v15 == 0
(assert (= (ff.mul (as ff21888242871839275222246405745257275088548364400416034343698204186575808495616 F) w18) zero))

; Constraint 25: -1*v22 == 0
(assert (= (ff.mul (as ff21888242871839275222246405745257275088548364400416034343698204186575808495616 F) w25) zero))

; Constraint 26: -1*v23 == 0
(assert (= (ff.mul (as ff21888242871839275222246405745257275088548364400416034343698204186575808495616 F) w26) zero))

; Constraint 27: -1*v24 == 0
(assert (= (ff.mul (as ff21888242871839275222246405745257275088548364400416034343698204186575808495616 F) w27) zero))

; Constraint 28: -1*v25 == 0
(assert (= (ff.mul (as ff21888242871839275222246405745257275088548364400416034343698204186575808495616 F) w28) zero))

; Constraint 29: -1*v26 == 0
(assert (= (ff.mul (as ff21888242871839275222246405745257275088548364400416034343698204186575808495616 F) w29) zero))

; Constraint 30: -1*v27 == 0
(assert (= (ff.mul (as ff21888242871839275222246405745257275088548364400416034343698204186575808495616 F) w30) zero))

; Constraint 31: -1*v28 == 0
(assert (= (ff.mul (as ff21888242871839275222246405745257275088548364400416034343698204186575808495616 F) w31) zero))

; Constraint 32: -1*v29 == 0
(assert (= (ff.mul (as ff21888242871839275222246405745257275088548364400416034343698204186575808495616 F) w32) zero))

; Constraint 33: -1*v30 == 0
(assert (= (ff.mul (as ff21888242871839275222246405745257275088548364400416034343698204186575808495616 F) w33) zero))

; Constraint 34: -1*v31 == 0
(assert (= (ff.mul (as ff21888242871839275222246405745257275088548364400416034343698204186575808495616 F) w34) zero))

; Constraint 35: -1*v32 == 0
(assert (= (ff.mul (as ff21888242871839275222246405745257275088548364400416034343698204186575808495616 F) w35) zero))

; Constraint 36: -1*v33 == 0
(assert (= (ff.mul (as ff21888242871839275222246405745257275088548364400416034343698204186575808495616 F) w36) zero))

; Constraint 37: -1*v34 == 0
(assert (= (ff.mul (as ff21888242871839275222246405745257275088548364400416034343698204186575808495616 F) w37) zero))

; Constraint 38: -1*v35 == 0
(assert (= (ff.mul (as ff21888242871839275222246405745257275088548364400416034343698204186575808495616 F) w38) zero))

; Constraint 39: -1*v36 == 0
(assert (= (ff.mul (as ff21888242871839275222246405745257275088548364400416034343698204186575808495616 F) w39) zero))

; Constraint 40: -1*v37 == 0
(assert (= (ff.mul (as ff21888242871839275222246405745257275088548364400416034343698204186575808495616 F) w40) zero))

; Constraint 41: -1*v38 == 0
(assert (= (ff.mul (as ff21888242871839275222246405745257275088548364400416034343698204186575808495616 F) w41) zero))

; Constraint 42: -1*v22 + 1*v39*v38 == 0
(assert (= (ff.add (ff.mul (as ff21888242871839275222246405745257275088548364400416034343698204186575808495616 F) w25) (ff.mul (as ff1 F) (ff.mul w42 w41))) zero))

; Constraint 43: 1*v38 + -1*v40 + -1 == 0
(assert (= (ff.add (ff.add (ff.mul (as ff1 F) w41) (ff.mul (as ff21888242871839275222246405745257275088548364400416034343698204186575808495616 F) w43)) (as ff21888242871839275222246405745257275088548364400416034343698204186575808495616 F)) zero))

; Constraint 44: -1*v23 + 1*v41*v40 == 0
(assert (= (ff.add (ff.mul (as ff21888242871839275222246405745257275088548364400416034343698204186575808495616 F) w26) (ff.mul (as ff1 F) (ff.mul w44 w43))) zero))

; Constraint 45: 1*v39 + 1*v41 + -1*v42 == 0
(assert (= (ff.add (ff.add (ff.mul (as ff1 F) w42) (ff.mul (as ff1 F) w44)) (ff.mul (as ff21888242871839275222246405745257275088548364400416034343698204186575808495616 F) w45)) zero))

; Constraint 46: 1*v38 + -1*v43 + -2 == 0
(assert (= (ff.add (ff.add (ff.mul (as ff1 F) w41) (ff.mul (as ff21888242871839275222246405745257275088548364400416034343698204186575808495616 F) w46)) (as ff21888242871839275222246405745257275088548364400416034343698204186575808495615 F)) zero))

; Constraint 47: -1*v24 + 1*v44*v43 == 0
(assert (= (ff.add (ff.mul (as ff21888242871839275222246405745257275088548364400416034343698204186575808495616 F) w27) (ff.mul (as ff1 F) (ff.mul w47 w46))) zero))

; Constraint 48: 1*v42 + 1*v44 + -1*v45 == 0
(assert (= (ff.add (ff.add (ff.mul (as ff1 F) w45) (ff.mul (as ff1 F) w47)) (ff.mul (as ff21888242871839275222246405745257275088548364400416034343698204186575808495616 F) w48)) zero))

; Constraint 49: 1*v38 + -1*v46 + -3 == 0
(assert (= (ff.add (ff.add (ff.mul (as ff1 F) w41) (ff.mul (as ff21888242871839275222246405745257275088548364400416034343698204186575808495616 F) w49)) (as ff21888242871839275222246405745257275088548364400416034343698204186575808495614 F)) zero))

; Constraint 50: -1*v25 + 1*v47*v46 == 0
(assert (= (ff.add (ff.mul (as ff21888242871839275222246405745257275088548364400416034343698204186575808495616 F) w28) (ff.mul (as ff1 F) (ff.mul w50 w49))) zero))

; Constraint 51: 1*v45 + 1*v47 + -1*v48 == 0
(assert (= (ff.add (ff.add (ff.mul (as ff1 F) w48) (ff.mul (as ff1 F) w50)) (ff.mul (as ff21888242871839275222246405745257275088548364400416034343698204186575808495616 F) w51)) zero))

; Constraint 52: 1*v38 + -1*v49 + -4 == 0
(assert (= (ff.add (ff.add (ff.mul (as ff1 F) w41) (ff.mul (as ff21888242871839275222246405745257275088548364400416034343698204186575808495616 F) w52)) (as ff21888242871839275222246405745257275088548364400416034343698204186575808495613 F)) zero))

; Constraint 53: -1*v26 + 1*v50*v49 == 0
(assert (= (ff.add (ff.mul (as ff21888242871839275222246405745257275088548364400416034343698204186575808495616 F) w29) (ff.mul (as ff1 F) (ff.mul w53 w52))) zero))

; Constraint 54: 1*v48 + 1*v50 + -1*v51 == 0
(assert (= (ff.add (ff.add (ff.mul (as ff1 F) w51) (ff.mul (as ff1 F) w53)) (ff.mul (as ff21888242871839275222246405745257275088548364400416034343698204186575808495616 F) w54)) zero))

; Constraint 55: 1*v38 + -1*v52 + -5 == 0
(assert (= (ff.add (ff.add (ff.mul (as ff1 F) w41) (ff.mul (as ff21888242871839275222246405745257275088548364400416034343698204186575808495616 F) w55)) (as ff21888242871839275222246405745257275088548364400416034343698204186575808495612 F)) zero))

; Constraint 56: -1*v27 + 1*v53*v52 == 0
(assert (= (ff.add (ff.mul (as ff21888242871839275222246405745257275088548364400416034343698204186575808495616 F) w30) (ff.mul (as ff1 F) (ff.mul w56 w55))) zero))

; Constraint 57: 1*v51 + 1*v53 + -1*v54 == 0
(assert (= (ff.add (ff.add (ff.mul (as ff1 F) w54) (ff.mul (as ff1 F) w56)) (ff.mul (as ff21888242871839275222246405745257275088548364400416034343698204186575808495616 F) w57)) zero))

; Constraint 58: 1*v38 + -1*v55 + -6 == 0
(assert (= (ff.add (ff.add (ff.mul (as ff1 F) w41) (ff.mul (as ff21888242871839275222246405745257275088548364400416034343698204186575808495616 F) w58)) (as ff21888242871839275222246405745257275088548364400416034343698204186575808495611 F)) zero))

; Constraint 59: -1*v28 + 1*v56*v55 == 0
(assert (= (ff.add (ff.mul (as ff21888242871839275222246405745257275088548364400416034343698204186575808495616 F) w31) (ff.mul (as ff1 F) (ff.mul w59 w58))) zero))

; Constraint 60: 1*v54 + 1*v56 + -1*v57 == 0
(assert (= (ff.add (ff.add (ff.mul (as ff1 F) w57) (ff.mul (as ff1 F) w59)) (ff.mul (as ff21888242871839275222246405745257275088548364400416034343698204186575808495616 F) w60)) zero))

; Constraint 61: 1*v38 + -1*v58 + -7 == 0
(assert (= (ff.add (ff.add (ff.mul (as ff1 F) w41) (ff.mul (as ff21888242871839275222246405745257275088548364400416034343698204186575808495616 F) w61)) (as ff21888242871839275222246405745257275088548364400416034343698204186575808495610 F)) zero))

; Constraint 62: -1*v29 + 1*v59*v58 == 0
(assert (= (ff.add (ff.mul (as ff21888242871839275222246405745257275088548364400416034343698204186575808495616 F) w32) (ff.mul (as ff1 F) (ff.mul w62 w61))) zero))

; Constraint 63: 1*v57 + 1*v59 + -1*v60 == 0
(assert (= (ff.add (ff.add (ff.mul (as ff1 F) w60) (ff.mul (as ff1 F) w62)) (ff.mul (as ff21888242871839275222246405745257275088548364400416034343698204186575808495616 F) w63)) zero))

; Constraint 64: 1*v38 + -1*v61 + -8 == 0
(assert (= (ff.add (ff.add (ff.mul (as ff1 F) w41) (ff.mul (as ff21888242871839275222246405745257275088548364400416034343698204186575808495616 F) w64)) (as ff21888242871839275222246405745257275088548364400416034343698204186575808495609 F)) zero))

; Constraint 65: -1*v30 + 1*v62*v61 == 0
(assert (= (ff.add (ff.mul (as ff21888242871839275222246405745257275088548364400416034343698204186575808495616 F) w33) (ff.mul (as ff1 F) (ff.mul w65 w64))) zero))

; Constraint 66: 1*v60 + 1*v62 + -1*v63 == 0
(assert (= (ff.add (ff.add (ff.mul (as ff1 F) w63) (ff.mul (as ff1 F) w65)) (ff.mul (as ff21888242871839275222246405745257275088548364400416034343698204186575808495616 F) w66)) zero))

; Constraint 67: 1*v38 + -1*v64 + -9 == 0
(assert (= (ff.add (ff.add (ff.mul (as ff1 F) w41) (ff.mul (as ff21888242871839275222246405745257275088548364400416034343698204186575808495616 F) w67)) (as ff21888242871839275222246405745257275088548364400416034343698204186575808495608 F)) zero))

; Constraint 68: -1*v31 + 1*v65*v64 == 0
(assert (= (ff.add (ff.mul (as ff21888242871839275222246405745257275088548364400416034343698204186575808495616 F) w34) (ff.mul (as ff1 F) (ff.mul w68 w67))) zero))

; Constraint 69: 1*v63 + 1*v65 + -1*v66 == 0
(assert (= (ff.add (ff.add (ff.mul (as ff1 F) w66) (ff.mul (as ff1 F) w68)) (ff.mul (as ff21888242871839275222246405745257275088548364400416034343698204186575808495616 F) w69)) zero))

; Constraint 70: 1*v38 + -1*v67 + -10 == 0
(assert (= (ff.add (ff.add (ff.mul (as ff1 F) w41) (ff.mul (as ff21888242871839275222246405745257275088548364400416034343698204186575808495616 F) w70)) (as ff21888242871839275222246405745257275088548364400416034343698204186575808495607 F)) zero))

; Constraint 71: -1*v32 + 1*v68*v67 == 0
(assert (= (ff.add (ff.mul (as ff21888242871839275222246405745257275088548364400416034343698204186575808495616 F) w35) (ff.mul (as ff1 F) (ff.mul w71 w70))) zero))

; Constraint 72: 1*v66 + 1*v68 + -1*v69 == 0
(assert (= (ff.add (ff.add (ff.mul (as ff1 F) w69) (ff.mul (as ff1 F) w71)) (ff.mul (as ff21888242871839275222246405745257275088548364400416034343698204186575808495616 F) w72)) zero))

; Constraint 73: 1*v38 + -1*v70 + -11 == 0
(assert (= (ff.add (ff.add (ff.mul (as ff1 F) w41) (ff.mul (as ff21888242871839275222246405745257275088548364400416034343698204186575808495616 F) w73)) (as ff21888242871839275222246405745257275088548364400416034343698204186575808495606 F)) zero))

; Constraint 74: -1*v33 + 1*v71*v70 == 0
(assert (= (ff.add (ff.mul (as ff21888242871839275222246405745257275088548364400416034343698204186575808495616 F) w36) (ff.mul (as ff1 F) (ff.mul w74 w73))) zero))

; Constraint 75: 1*v69 + 1*v71 + -1*v72 == 0
(assert (= (ff.add (ff.add (ff.mul (as ff1 F) w72) (ff.mul (as ff1 F) w74)) (ff.mul (as ff21888242871839275222246405745257275088548364400416034343698204186575808495616 F) w75)) zero))

; Constraint 76: 1*v38 + -1*v73 + -12 == 0
(assert (= (ff.add (ff.add (ff.mul (as ff1 F) w41) (ff.mul (as ff21888242871839275222246405745257275088548364400416034343698204186575808495616 F) w76)) (as ff21888242871839275222246405745257275088548364400416034343698204186575808495605 F)) zero))

; Constraint 77: -1*v34 + 1*v74*v73 == 0
(assert (= (ff.add (ff.mul (as ff21888242871839275222246405745257275088548364400416034343698204186575808495616 F) w37) (ff.mul (as ff1 F) (ff.mul w77 w76))) zero))

; Constraint 78: 1*v72 + 1*v74 + -1*v75 == 0
(assert (= (ff.add (ff.add (ff.mul (as ff1 F) w75) (ff.mul (as ff1 F) w77)) (ff.mul (as ff21888242871839275222246405745257275088548364400416034343698204186575808495616 F) w78)) zero))

; Constraint 79: 1*v38 + -1*v76 + -13 == 0
(assert (= (ff.add (ff.add (ff.mul (as ff1 F) w41) (ff.mul (as ff21888242871839275222246405745257275088548364400416034343698204186575808495616 F) w79)) (as ff21888242871839275222246405745257275088548364400416034343698204186575808495604 F)) zero))

; Constraint 80: -1*v35 + 1*v77*v76 == 0
(assert (= (ff.add (ff.mul (as ff21888242871839275222246405745257275088548364400416034343698204186575808495616 F) w38) (ff.mul (as ff1 F) (ff.mul w80 w79))) zero))

; Constraint 81: 1*v75 + 1*v77 + -1*v78 == 0
(assert (= (ff.add (ff.add (ff.mul (as ff1 F) w78) (ff.mul (as ff1 F) w80)) (ff.mul (as ff21888242871839275222246405745257275088548364400416034343698204186575808495616 F) w81)) zero))

; Constraint 82: 1*v38 + -1*v79 + -14 == 0
(assert (= (ff.add (ff.add (ff.mul (as ff1 F) w41) (ff.mul (as ff21888242871839275222246405745257275088548364400416034343698204186575808495616 F) w82)) (as ff21888242871839275222246405745257275088548364400416034343698204186575808495603 F)) zero))

; Constraint 83: -1*v36 + 1*v80*v79 == 0
(assert (= (ff.add (ff.mul (as ff21888242871839275222246405745257275088548364400416034343698204186575808495616 F) w39) (ff.mul (as ff1 F) (ff.mul w83 w82))) zero))

; Constraint 84: 1*v78 + 1*v80 + -1*v81 == 0
(assert (= (ff.add (ff.add (ff.mul (as ff1 F) w81) (ff.mul (as ff1 F) w83)) (ff.mul (as ff21888242871839275222246405745257275088548364400416034343698204186575808495616 F) w84)) zero))

; Constraint 85: 1*v38 + -1*v82 + -15 == 0
(assert (= (ff.add (ff.add (ff.mul (as ff1 F) w41) (ff.mul (as ff21888242871839275222246405745257275088548364400416034343698204186575808495616 F) w85)) (as ff21888242871839275222246405745257275088548364400416034343698204186575808495602 F)) zero))

; Constraint 86: -1*v37 + 1*v83*v82 == 0
(assert (= (ff.add (ff.mul (as ff21888242871839275222246405745257275088548364400416034343698204186575808495616 F) w40) (ff.mul (as ff1 F) (ff.mul w86 w85))) zero))

; Constraint 87: 1*v81 + 1*v83 + -1*v84 == 0
(assert (= (ff.add (ff.add (ff.mul (as ff1 F) w84) (ff.mul (as ff1 F) w86)) (ff.mul (as ff21888242871839275222246405745257275088548364400416034343698204186575808495616 F) w87)) zero))

; Constraint 88: -1*v0 + 1*v38 + -1*v85 == 0
(assert (= (ff.add (ff.add (ff.mul (as ff21888242871839275222246405745257275088548364400416034343698204186575808495616 F) w3) (ff.mul (as ff1 F) w41)) (ff.mul (as ff21888242871839275222246405745257275088548364400416034343698204186575808495616 F) w88)) zero))

; Constraint 89: -1*v1 + 1*v38 + -1*v86 == 0
(assert (= (ff.add (ff.add (ff.mul (as ff21888242871839275222246405745257275088548364400416034343698204186575808495616 F) w4) (ff.mul (as ff1 F) w41)) (ff.mul (as ff21888242871839275222246405745257275088548364400416034343698204186575808495616 F) w89)) zero))

; Constraint 90: -1*v2 + 1*v38 + -1*v87 == 0
(assert (= (ff.add (ff.add (ff.mul (as ff21888242871839275222246405745257275088548364400416034343698204186575808495616 F) w5) (ff.mul (as ff1 F) w41)) (ff.mul (as ff21888242871839275222246405745257275088548364400416034343698204186575808495616 F) w90)) zero))

; Constraint 91: -1*v3 + 1*v38 + -1*v88 == 0
(assert (= (ff.add (ff.add (ff.mul (as ff21888242871839275222246405745257275088548364400416034343698204186575808495616 F) w6) (ff.mul (as ff1 F) w41)) (ff.mul (as ff21888242871839275222246405745257275088548364400416034343698204186575808495616 F) w91)) zero))

; Constraint 92: -1*v4 + 1*v38 + -1*v89 == 0
(assert (= (ff.add (ff.add (ff.mul (as ff21888242871839275222246405745257275088548364400416034343698204186575808495616 F) w7) (ff.mul (as ff1 F) w41)) (ff.mul (as ff21888242871839275222246405745257275088548364400416034343698204186575808495616 F) w92)) zero))

; Constraint 93: -1*v5 + 1*v38 + -1*v90 == 0
(assert (= (ff.add (ff.add (ff.mul (as ff21888242871839275222246405745257275088548364400416034343698204186575808495616 F) w8) (ff.mul (as ff1 F) w41)) (ff.mul (as ff21888242871839275222246405745257275088548364400416034343698204186575808495616 F) w93)) zero))

; Constraint 94: -1*v8 + 1*v38 + -1*v91 == 0
(assert (= (ff.add (ff.add (ff.mul (as ff21888242871839275222246405745257275088548364400416034343698204186575808495616 F) w11) (ff.mul (as ff1 F) w41)) (ff.mul (as ff21888242871839275222246405745257275088548364400416034343698204186575808495616 F) w94)) zero))

; Constraint 95: -1*v9 + 1*v38 + -1*v92 == 0
(assert (= (ff.add (ff.add (ff.mul (as ff21888242871839275222246405745257275088548364400416034343698204186575808495616 F) w12) (ff.mul (as ff1 F) w41)) (ff.mul (as ff21888242871839275222246405745257275088548364400416034343698204186575808495616 F) w95)) zero))

; Constraint 96: -1*v10 + 1*v38 + -1*v93 == 0
(assert (= (ff.add (ff.add (ff.mul (as ff21888242871839275222246405745257275088548364400416034343698204186575808495616 F) w13) (ff.mul (as ff1 F) w41)) (ff.mul (as ff21888242871839275222246405745257275088548364400416034343698204186575808495616 F) w96)) zero))

; Constraint 97: -1*v11 + 1*v38 + -1*v94 == 0
(assert (= (ff.add (ff.add (ff.mul (as ff21888242871839275222246405745257275088548364400416034343698204186575808495616 F) w14) (ff.mul (as ff1 F) w41)) (ff.mul (as ff21888242871839275222246405745257275088548364400416034343698204186575808495616 F) w97)) zero))

; Constraint 98: -1*v12 + 1*v38 + -1*v95 == 0
(assert (= (ff.add (ff.add (ff.mul (as ff21888242871839275222246405745257275088548364400416034343698204186575808495616 F) w15) (ff.mul (as ff1 F) w41)) (ff.mul (as ff21888242871839275222246405745257275088548364400416034343698204186575808495616 F) w98)) zero))

; Constraint 99: -1*v13 + 1*v38 + -1*v96 == 0
(assert (= (ff.add (ff.add (ff.mul (as ff21888242871839275222246405745257275088548364400416034343698204186575808495616 F) w16) (ff.mul (as ff1 F) w41)) (ff.mul (as ff21888242871839275222246405745257275088548364400416034343698204186575808495616 F) w99)) zero))

; Constraint 100: -1*v14 + 1*v38 + -1*v97 == 0
(assert (= (ff.add (ff.add (ff.mul (as ff21888242871839275222246405745257275088548364400416034343698204186575808495616 F) w17) (ff.mul (as ff1 F) w41)) (ff.mul (as ff21888242871839275222246405745257275088548364400416034343698204186575808495616 F) w100)) zero))

; Constraint 101: -1*v15 + 1*v38 + -1*v98 == 0
(assert (= (ff.add (ff.add (ff.mul (as ff21888242871839275222246405745257275088548364400416034343698204186575808495616 F) w18) (ff.mul (as ff1 F) w41)) (ff.mul (as ff21888242871839275222246405745257275088548364400416034343698204186575808495616 F) w101)) zero))

; Constraint 102: 1*v99*v85 + -1 == 0
(assert (= (ff.add (ff.mul (as ff1 F) (ff.mul w102 w88)) (as ff21888242871839275222246405745257275088548364400416034343698204186575808495616 F)) zero))

; Constraint 103: 1*v100*v86 + -1 == 0
(assert (= (ff.add (ff.mul (as ff1 F) (ff.mul w103 w89)) (as ff21888242871839275222246405745257275088548364400416034343698204186575808495616 F)) zero))

; Constraint 104: 1*v101*v87 + -1 == 0
(assert (= (ff.add (ff.mul (as ff1 F) (ff.mul w104 w90)) (as ff21888242871839275222246405745257275088548364400416034343698204186575808495616 F)) zero))

; Constraint 105: 1*v102*v88 + -1 == 0
(assert (= (ff.add (ff.mul (as ff1 F) (ff.mul w105 w91)) (as ff21888242871839275222246405745257275088548364400416034343698204186575808495616 F)) zero))

; Constraint 106: 1*v103*v89 + -1 == 0
(assert (= (ff.add (ff.mul (as ff1 F) (ff.mul w106 w92)) (as ff21888242871839275222246405745257275088548364400416034343698204186575808495616 F)) zero))

; Constraint 107: 1*v104*v90 + -1 == 0
(assert (= (ff.add (ff.mul (as ff1 F) (ff.mul w107 w93)) (as ff21888242871839275222246405745257275088548364400416034343698204186575808495616 F)) zero))

; Constraint 108: 1*v105*v91 + -1 == 0
(assert (= (ff.add (ff.mul (as ff1 F) (ff.mul w108 w94)) (as ff21888242871839275222246405745257275088548364400416034343698204186575808495616 F)) zero))

; Constraint 109: 1*v106*v92 + -1 == 0
(assert (= (ff.add (ff.mul (as ff1 F) (ff.mul w109 w95)) (as ff21888242871839275222246405745257275088548364400416034343698204186575808495616 F)) zero))

; Constraint 110: 1*v107*v93 + -1 == 0
(assert (= (ff.add (ff.mul (as ff1 F) (ff.mul w110 w96)) (as ff21888242871839275222246405745257275088548364400416034343698204186575808495616 F)) zero))

; Constraint 111: 1*v108*v94 + -1 == 0
(assert (= (ff.add (ff.mul (as ff1 F) (ff.mul w111 w97)) (as ff21888242871839275222246405745257275088548364400416034343698204186575808495616 F)) zero))

; Constraint 112: 1*v109*v95 + -1 == 0
(assert (= (ff.add (ff.mul (as ff1 F) (ff.mul w112 w98)) (as ff21888242871839275222246405745257275088548364400416034343698204186575808495616 F)) zero))

; Constraint 113: 1*v110*v96 + -1 == 0
(assert (= (ff.add (ff.mul (as ff1 F) (ff.mul w113 w99)) (as ff21888242871839275222246405745257275088548364400416034343698204186575808495616 F)) zero))

; Constraint 114: 1*v111*v97 + -1 == 0
(assert (= (ff.add (ff.mul (as ff1 F) (ff.mul w114 w100)) (as ff21888242871839275222246405745257275088548364400416034343698204186575808495616 F)) zero))

; Constraint 115: 1*v112*v98 + -1 == 0
(assert (= (ff.add (ff.mul (as ff1 F) (ff.mul w115 w101)) (as ff21888242871839275222246405745257275088548364400416034343698204186575808495616 F)) zero))

; Constraint 116: 1*v99 + 1*v100 + -1*v113 == 0
(assert (= (ff.add (ff.add (ff.mul (as ff1 F) w102) (ff.mul (as ff1 F) w103)) (ff.mul (as ff21888242871839275222246405745257275088548364400416034343698204186575808495616 F) w116)) zero))

; Constraint 117: 1*v101 + 1*v113 + -1*v114 == 0
(assert (= (ff.add (ff.add (ff.mul (as ff1 F) w104) (ff.mul (as ff1 F) w116)) (ff.mul (as ff21888242871839275222246405745257275088548364400416034343698204186575808495616 F) w117)) zero))

; Constraint 118: 1*v102 + 1*v114 + -1*v115 == 0
(assert (= (ff.add (ff.add (ff.mul (as ff1 F) w105) (ff.mul (as ff1 F) w117)) (ff.mul (as ff21888242871839275222246405745257275088548364400416034343698204186575808495616 F) w118)) zero))

; Constraint 119: 1*v103 + 1*v115 + -1*v116 == 0
(assert (= (ff.add (ff.add (ff.mul (as ff1 F) w106) (ff.mul (as ff1 F) w118)) (ff.mul (as ff21888242871839275222246405745257275088548364400416034343698204186575808495616 F) w119)) zero))

; Constraint 120: 1*v104 + 1*v116 + -1*v117 == 0
(assert (= (ff.add (ff.add (ff.mul (as ff1 F) w107) (ff.mul (as ff1 F) w119)) (ff.mul (as ff21888242871839275222246405745257275088548364400416034343698204186575808495616 F) w120)) zero))

; Constraint 121: 1*v105 + 1*v117 + -1*v118 == 0
(assert (= (ff.add (ff.add (ff.mul (as ff1 F) w108) (ff.mul (as ff1 F) w120)) (ff.mul (as ff21888242871839275222246405745257275088548364400416034343698204186575808495616 F) w121)) zero))

; Constraint 122: 1*v106 + 1*v118 + -1*v119 == 0
(assert (= (ff.add (ff.add (ff.mul (as ff1 F) w109) (ff.mul (as ff1 F) w121)) (ff.mul (as ff21888242871839275222246405745257275088548364400416034343698204186575808495616 F) w122)) zero))

; Constraint 123: 1*v107 + 1*v119 + -1*v120 == 0
(assert (= (ff.add (ff.add (ff.mul (as ff1 F) w110) (ff.mul (as ff1 F) w122)) (ff.mul (as ff21888242871839275222246405745257275088548364400416034343698204186575808495616 F) w123)) zero))

; Constraint 124: 1*v108 + 1*v120 + -1*v121 == 0
(assert (= (ff.add (ff.add (ff.mul (as ff1 F) w111) (ff.mul (as ff1 F) w123)) (ff.mul (as ff21888242871839275222246405745257275088548364400416034343698204186575808495616 F) w124)) zero))

; Constraint 125: 1*v109 + 1*v121 + -1*v122 == 0
(assert (= (ff.add (ff.add (ff.mul (as ff1 F) w112) (ff.mul (as ff1 F) w124)) (ff.mul (as ff21888242871839275222246405745257275088548364400416034343698204186575808495616 F) w125)) zero))

; Constraint 126: 1*v110 + 1*v122 + -1*v123 == 0
(assert (= (ff.add (ff.add (ff.mul (as ff1 F) w113) (ff.mul (as ff1 F) w125)) (ff.mul (as ff21888242871839275222246405745257275088548364400416034343698204186575808495616 F) w126)) zero))

; Constraint 127: 1*v111 + 1*v123 + -1*v124 == 0
(assert (= (ff.add (ff.add (ff.mul (as ff1 F) w114) (ff.mul (as ff1 F) w126)) (ff.mul (as ff21888242871839275222246405745257275088548364400416034343698204186575808495616 F) w127)) zero))

; Constraint 128: 1*v112 + 1*v124 + -1*v125 == 0
(assert (= (ff.add (ff.add (ff.mul (as ff1 F) w115) (ff.mul (as ff1 F) w127)) (ff.mul (as ff21888242871839275222246405745257275088548364400416034343698204186575808495616 F) w128)) zero))

; Constraint 129: 1*v84 + -1*v125 == 0
(assert (= (ff.add (ff.mul (as ff1 F) w87) (ff.mul (as ff21888242871839275222246405745257275088548364400416034343698204186575808495616 F) w128)) zero))

(check-sat)
